p edge 250 3108
e 1 10
e 1 14
e 1 25
e 1 30
e 1 33
e 1 52
e 1 66
e 1 92
e 1 95
e 1 108
e 1 115
e 1 117
e 1 132
e 1 133
e 1 150
e 1 152
e 1 160
e 1 162
e 1 196
e 1 211
e 1 216
e 1 220
e 1 228
e 2 13
e 2 37
e 2 44
e 2 58
e 2 72
e 2 74
e 2 82
e 2 85
e 2 89
e 2 123
e 2 129
e 2 140
e 2 191
e 2 201
e 2 217
e 2 236
e 3 12
e 3 16
e 3 30
e 3 33
e 3 36
e 3 61
e 3 63
e 3 73
e 3 81
e 3 82
e 3 105
e 3 106
e 3 111
e 3 113
e 3 133
e 3 134
e 3 146
e 3 147
e 3 152
e 3 176
e 3 189
e 3 193
e 3 247
e 3 250
e 4 12
e 4 48
e 4 49
e 4 52
e 4 68
e 4 71
e 4 95
e 4 101
e 4 113
e 4 124
e 4 169
e 4 181
e 4 192
e 4 197
e 5 15
e 5 17
e 5 23
e 5 49
e 5 51
e 5 59
e 5 76
e 5 100
e 5 101
e 5 125
e 5 139
e 5 148
e 5 149
e 5 159
e 5 164
e 5 166
e 5 170
e 5 181
e 5 182
e 5 183
e 5 202
e 5 203
e 5 205
e 5 206
e 5 219
e 5 220
e 5 225
e 5 238
e 5 241
e 5 243
e 6 13
e 6 26
e 6 29
e 6 34
e 6 42
e 6 43
e 6 60
e 6 68
e 6 74
e 6 79
e 6 83
e 6 87
e 6 95
e 6 101
e 6 117
e 6 122
e 6 128
e 6 140
e 6 149
e 6 156
e 6 157
e 6 162
e 6 171
e 6 185
e 6 209
e 6 214
e 6 215
e 6 226
e 6 229
e 6 230
e 6 235
e 6 237
e 6 244
e 7 18
e 7 37
e 7 42
e 7 44
e 7 45
e 7 59
e 7 64
e 7 71
e 7 79
e 7 85
e 7 95
e 7 104
e 7 108
e 7 110
e 7 118
e 7 124
e 7 129
e 7 133
e 7 154
e 7 157
e 7 165
e 7 205
e 7 209
e 7 217
e 7 227
e 7 244
e 7 250
e 8 17
e 8 36
e 8 47
e 8 54
e 8 94
e 8 99
e 8 103
e 8 104
e 8 108
e 8 128
e 8 140
e 8 152
e 8 156
e 8 160
e 8 183
e 8 204
e 8 223
e 8 233
e 8 238
e 8 242
e 9 29
e 9 33
e 9 38
e 9 40
e 9 43
e 9 44
e 9 47
e 9 49
e 9 53
e 9 75
e 9 100
e 9 101
e 9 113
e 9 136
e 9 137
e 9 157
e 9 189
e 9 201
e 9 218
e 9 220
e 9 222
e 9 236
e 9 243
e 10 22
e 10 25
e 10 28
e 10 30
e 10 41
e 10 50
e 10 70
e 10 76
e 10 77
e 10 81
e 10 84
e 10 90
e 10 98
e 10 131
e 10 132
e 10 139
e 10 153
e 10 154
e 10 161
e 10 185
e 10 188
e 10 196
e 10 204
e 10 215
e 10 223
e 10 231
e 10 239
e 11 15
e 11 24
e 11 36
e 11 52
e 11 55
e 11 79
e 11 83
e 11 89
e 11 90
e 11 94
e 11 101
e 11 130
e 11 132
e 11 137
e 11 139
e 11 140
e 11 150
e 11 151
e 11 153
e 11 166
e 11 174
e 11 187
e 11 199
e 11 209
e 11 213
e 11 235
e 12 16
e 12 28
e 12 43
e 12 46
e 12 66
e 12 76
e 12 77
e 12 97
e 12 101
e 12 113
e 12 115
e 12 122
e 12 125
e 12 132
e 12 156
e 12 166
e 12 171
e 12 175
e 12 203
e 12 212
e 12 218
e 12 236
e 12 238
e 12 243
e 12 248
e 13 16
e 13 36
e 13 48
e 13 56
e 13 57
e 13 77
e 13 115
e 13 123
e 13 127
e 13 130
e 13 137
e 13 140
e 13 149
e 13 150
e 13 151
e 13 153
e 13 160
e 13 163
e 13 185
e 13 196
e 13 215
e 13 222
e 13 240
e 14 16
e 14 17
e 14 29
e 14 44
e 14 70
e 14 76
e 14 83
e 14 85
e 14 89
e 14 90
e 14 93
e 14 105
e 14 109
e 14 113
e 14 129
e 14 132
e 14 153
e 14 156
e 14 159
e 14 166
e 14 167
e 14 179
e 14 184
e 14 197
e 14 198
e 14 226
e 14 240
e 14 248
e 15 16
e 15 18
e 15 35
e 15 38
e 15 50
e 15 56
e 15 59
e 15 68
e 15 81
e 15 87
e 15 88
e 15 121
e 15 127
e 15 128
e 15 165
e 15 170
e 15 174
e 15 188
e 15 194
e 15 202
e 15 203
e 15 211
e 15 213
e 15 244
e 16 46
e 16 65
e 16 75
e 16 84
e 16 127
e 16 152
e 16 176
e 16 186
e 16 204
e 16 206
e 16 212
e 16 216
e 16 217
e 16 221
e 16 226
e 17 19
e 17 44
e 17 56
e 17 64
e 17 65
e 17 72
e 17 77
e 17 78
e 17 83
e 17 100
e 17 133
e 17 135
e 17 136
e 17 184
e 17 185
e 17 192
e 17 194
e 17 200
e 17 211
e 17 212
e 17 214
e 17 222
e 17 229
e 17 237
e 17 239
e 17 241
e 18 19
e 18 21
e 18 32
e 18 44
e 18 55
e 18 58
e 18 63
e 18 68
e 18 72
e 18 99
e 18 114
e 18 115
e 18 123
e 18 130
e 18 136
e 18 143
e 18 150
e 18 154
e 18 163
e 18 173
e 18 188
e 18 190
e 18 230
e 19 23
e 19 37
e 19 69
e 19 73
e 19 108
e 19 110
e 19 127
e 19 148
e 19 154
e 19 156
e 19 169
e 19 177
e 19 180
e 19 185
e 19 189
e 19 209
e 19 221
e 19 229
e 19 247
e 20 25
e 20 28
e 20 36
e 20 43
e 20 47
e 20 53
e 20 65
e 20 66
e 20 72
e 20 82
e 20 89
e 20 91
e 20 98
e 20 121
e 20 129
e 20 130
e 20 165
e 20 167
e 20 169
e 20 185
e 20 189
e 20 212
e 20 218
e 20 225
e 20 229
e 20 239
e 20 243
e 20 250
e 21 32
e 21 33
e 21 36
e 21 37
e 21 46
e 21 57
e 21 59
e 21 75
e 21 77
e 21 81
e 21 83
e 21 96
e 21 105
e 21 108
e 21 122
e 21 148
e 21 156
e 21 165
e 21 178
e 21 179
e 21 184
e 21 185
e 21 208
e 21 210
e 21 238
e 21 240
e 22 25
e 22 47
e 22 51
e 22 62
e 22 64
e 22 69
e 22 87
e 22 88
e 22 100
e 22 109
e 22 125
e 22 148
e 22 165
e 22 178
e 22 179
e 22 204
e 22 219
e 22 250
e 23 25
e 23 58
e 23 63
e 23 117
e 23 126
e 23 129
e 23 168
e 23 174
e 23 185
e 23 194
e 23 241
e 23 242
e 23 246
e 24 52
e 24 70
e 24 72
e 24 83
e 24 96
e 24 109
e 24 110
e 24 124
e 24 143
e 24 160
e 24 164
e 24 166
e 24 173
e 24 175
e 24 178
e 24 181
e 24 201
e 24 214
e 24 219
e 24 221
e 24 222
e 24 230
e 25 32
e 25 42
e 25 49
e 25 62
e 25 72
e 25 73
e 25 74
e 25 78
e 25 79
e 25 82
e 25 95
e 25 109
e 25 119
e 25 129
e 25 133
e 25 138
e 25 141
e 25 142
e 25 145
e 25 146
e 25 158
e 25 167
e 25 168
e 25 169
e 25 187
e 25 195
e 25 212
e 25 220
e 25 223
e 25 230
e 25 236
e 25 247
e 26 67
e 26 86
e 26 87
e 26 95
e 26 101
e 26 115
e 26 120
e 26 137
e 26 143
e 26 146
e 26 157
e 26 179
e 26 190
e 26 198
e 26 207
e 26 209
e 26 243
e 26 245
e 27 30
e 27 36
e 27 43
e 27 45
e 27 46
e 27 59
e 27 69
e 27 71
e 27 76
e 27 82
e 27 91
e 27 93
e 27 102
e 27 117
e 27 125
e 27 157
e 27 158
e 27 182
e 27 188
e 27 193
e 27 207
e 27 222
e 27 225
e 27 239
e 27 248
e 28 66
e 28 85
e 28 92
e 28 98
e 28 104
e 28 142
e 28 153
e 28 157
e 28 216
e 28 225
e 28 232
e 28 246
e 28 247
e 28 249
e 29 40
e 29 51
e 29 62
e 29 70
e 29 76
e 29 77
e 29 88
e 29 95
e 29 107
e 29 118
e 29 137
e 29 149
e 29 174
e 29 177
e 29 188
e 29 192
e 29 194
e 29 205
e 29 216
e 29 230
e 29 241
e 29 248
e 29 249
e 30 40
e 30 48
e 30 51
e 30 66
e 30 67
e 30 69
e 30 70
e 30 111
e 30 112
e 30 122
e 30 125
e 30 127
e 30 133
e 30 137
e 30 143
e 30 150
e 30 163
e 30 173
e 30 174
e 30 191
e 30 198
e 30 203
e 30 235
e 30 237
e 31 40
e 31 45
e 31 72
e 31 74
e 31 87
e 31 114
e 31 125
e 31 155
e 31 166
e 31 175
e 31 181
e 31 185
e 31 193
e 31 194
e 31 195
e 31 197
e 31 203
e 31 211
e 31 223
e 31 228
e 31 233
e 31 234
e 32 44
e 32 58
e 32 107
e 32 116
e 32 123
e 32 138
e 32 151
e 32 172
e 32 179
e 32 187
e 32 194
e 32 196
e 32 204
e 32 206
e 32 216
e 32 220
e 32 230
e 32 231
e 32 237
e 32 250
e 33 36
e 33 38
e 33 65
e 33 67
e 33 73
e 33 95
e 33 96
e 33 97
e 33 98
e 33 114
e 33 123
e 33 133
e 33 135
e 33 150
e 33 160
e 33 164
e 33 171
e 33 182
e 33 185
e 33 202
e 33 212
e 33 230
e 34 38
e 34 40
e 34 44
e 34 46
e 34 48
e 34 52
e 34 56
e 34 67
e 34 90
e 34 100
e 34 108
e 34 110
e 34 131
e 34 147
e 34 152
e 34 164
e 34 165
e 34 169
e 34 173
e 34 208
e 34 215
e 34 238
e 35 43
e 35 46
e 35 72
e 35 84
e 35 86
e 35 91
e 35 95
e 35 110
e 35 124
e 35 129
e 35 141
e 35 149
e 35 150
e 35 171
e 35 178
e 35 211
e 35 213
e 35 220
e 35 222
e 35 230
e 35 232
e 35 242
e 36 40
e 36 46
e 36 47
e 36 49
e 36 51
e 36 68
e 36 74
e 36 89
e 36 120
e 36 124
e 36 132
e 36 136
e 36 151
e 36 166
e 36 182
e 36 188
e 36 192
e 36 200
e 36 203
e 36 207
e 36 208
e 36 209
e 36 210
e 36 227
e 36 241
e 37 48
e 37 49
e 37 77
e 37 89
e 37 92
e 37 95
e 37 96
e 37 114
e 37 123
e 37 126
e 37 130
e 37 137
e 37 145
e 37 169
e 37 175
e 37 179
e 37 183
e 37 194
e 37 209
e 37 213
e 37 215
e 37 246
e 37 248
e 38 41
e 38 57
e 38 62
e 38 79
e 38 96
e 38 103
e 38 108
e 38 117
e 38 135
e 38 142
e 38 162
e 38 170
e 38 175
e 38 178
e 38 200
e 38 206
e 38 212
e 38 249
e 38 250
e 39 40
e 39 47
e 39 51
e 39 59
e 39 95
e 39 100
e 39 101
e 39 104
e 39 126
e 39 131
e 39 132
e 39 145
e 39 153
e 39 158
e 39 173
e 39 193
e 39 201
e 39 208
e 39 224
e 39 226
e 39 240
e 39 248
e 40 41
e 40 59
e 40 69
e 40 88
e 40 101
e 40 141
e 40 145
e 40 151
e 40 155
e 40 158
e 40 164
e 40 166
e 40 175
e 40 178
e 40 205
e 40 221
e 40 235
e 40 241
e 41 42
e 41 45
e 41 47
e 41 50
e 41 55
e 41 59
e 41 67
e 41 82
e 41 102
e 41 107
e 41 118
e 41 119
e 41 120
e 41 127
e 41 132
e 41 144
e 41 161
e 41 170
e 41 171
e 41 173
e 41 189
e 41 197
e 41 199
e 41 200
e 41 210
e 41 221
e 41 230
e 41 234
e 41 238
e 41 239
e 42 43
e 42 78
e 42 86
e 42 96
e 42 145
e 42 146
e 42 159
e 42 170
e 42 172
e 42 173
e 42 178
e 42 189
e 42 213
e 42 218
e 42 229
e 42 240
e 43 68
e 43 78
e 43 96
e 43 100
e 43 120
e 43 131
e 43 153
e 43 162
e 43 165
e 43 181
e 43 184
e 43 214
e 43 227
e 43 230
e 43 232
e 44 50
e 44 85
e 44 91
e 44 97
e 44 110
e 44 111
e 44 121
e 44 129
e 44 150
e 44 152
e 44 160
e 44 178
e 44 179
e 44 187
e 44 202
e 44 210
e 44 220
e 44 222
e 44 224
e 44 234
e 44 246
e 45 74
e 45 90
e 45 106
e 45 115
e 45 120
e 45 121
e 45 133
e 45 169
e 45 190
e 45 192
e 45 198
e 45 216
e 45 218
e 45 224
e 45 227
e 45 231
e 45 249
e 45 250
e 46 52
e 46 54
e 46 80
e 46 95
e 46 110
e 46 116
e 46 126
e 46 136
e 46 187
e 46 209
e 46 211
e 46 229
e 46 230
e 46 235
e 46 248
e 47 72
e 47 83
e 47 95
e 47 104
e 47 116
e 47 122
e 47 126
e 47 149
e 47 159
e 47 163
e 47 175
e 47 176
e 47 203
e 47 218
e 47 238
e 47 240
e 47 244
e 47 248
e 47 249
e 48 69
e 48 89
e 48 92
e 48 102
e 48 103
e 48 124
e 48 126
e 48 136
e 48 138
e 48 146
e 48 150
e 48 153
e 48 155
e 48 172
e 48 181
e 48 189
e 48 191
e 48 217
e 48 226
e 48 232
e 48 246
e 49 61
e 49 68
e 49 71
e 49 73
e 49 77
e 49 103
e 49 105
e 49 112
e 49 114
e 49 119
e 49 124
e 49 132
e 49 137
e 49 139
e 49 142
e 49 160
e 49 179
e 49 186
e 49 187
e 49 200
e 49 207
e 49 212
e 49 230
e 49 236
e 49 250
e 50 61
e 50 67
e 50 71
e 50 72
e 50 104
e 50 109
e 50 119
e 50 125
e 50 166
e 50 170
e 50 171
e 50 173
e 50 174
e 50 186
e 50 198
e 50 200
e 50 214
e 50 218
e 50 247
e 51 72
e 51 92
e 51 130
e 51 137
e 51 146
e 51 147
e 51 148
e 51 151
e 51 163
e 51 167
e 51 174
e 51 175
e 51 197
e 51 207
e 51 210
e 51 211
e 51 229
e 51 232
e 51 234
e 51 246
e 52 60
e 52 63
e 52 70
e 52 82
e 52 89
e 52 112
e 52 136
e 52 146
e 52 160
e 52 176
e 52 199
e 52 200
e 52 207
e 52 208
e 52 209
e 52 217
e 52 230
e 52 244
e 53 85
e 53 87
e 53 97
e 53 130
e 53 137
e 53 156
e 53 168
e 53 179
e 53 186
e 53 198
e 53 199
e 53 211
e 53 237
e 53 242
e 54 74
e 54 76
e 54 77
e 54 81
e 54 102
e 54 114
e 54 117
e 54 133
e 54 139
e 54 141
e 54 142
e 54 145
e 54 146
e 54 155
e 54 166
e 54 169
e 54 172
e 54 177
e 54 178
e 54 186
e 54 201
e 54 222
e 54 223
e 54 225
e 54 243
e 54 244
e 54 245
e 54 250
e 55 67
e 55 84
e 55 89
e 55 95
e 55 127
e 55 146
e 55 160
e 55 162
e 55 166
e 55 180
e 55 197
e 55 218
e 56 64
e 56 67
e 56 70
e 56 73
e 56 98
e 56 108
e 56 113
e 56 121
e 56 133
e 56 164
e 56 165
e 56 167
e 56 168
e 56 171
e 56 173
e 56 185
e 56 197
e 56 202
e 56 205
e 56 211
e 56 214
e 56 250
e 57 61
e 57 72
e 57 73
e 57 77
e 57 78
e 57 92
e 57 103
e 57 108
e 57 129
e 57 170
e 57 176
e 57 180
e 57 185
e 57 210
e 57 227
e 57 232
e 57 250
e 58 59
e 58 61
e 58 88
e 58 93
e 58 100
e 58 115
e 58 124
e 58 130
e 58 155
e 58 171
e 58 183
e 58 188
e 58 189
e 58 221
e 58 222
e 58 225
e 58 226
e 58 234
e 58 240
e 58 243
e 59 68
e 59 71
e 59 73
e 59 75
e 59 82
e 59 98
e 59 99
e 59 114
e 59 129
e 59 134
e 59 136
e 59 138
e 59 149
e 59 150
e 59 162
e 59 167
e 59 175
e 59 203
e 59 207
e 59 213
e 59 222
e 59 226
e 59 227
e 59 240
e 59 241
e 60 86
e 60 121
e 60 124
e 60 130
e 60 150
e 60 151
e 60 164
e 60 169
e 60 172
e 60 178
e 60 179
e 60 185
e 60 224
e 60 228
e 60 234
e 60 244
e 61 74
e 61 82
e 61 93
e 61 122
e 61 129
e 61 154
e 61 156
e 61 161
e 61 162
e 61 165
e 61 182
e 61 186
e 61 189
e 61 213
e 61 215
e 61 221
e 61 234
e 61 242
e 61 249
e 62 70
e 62 125
e 62 139
e 62 144
e 62 158
e 62 159
e 62 175
e 62 199
e 62 217
e 62 234
e 62 235
e 62 243
e 62 245
e 62 250
e 63 64
e 63 65
e 63 69
e 63 80
e 63 87
e 63 91
e 63 102
e 63 104
e 63 107
e 63 111
e 63 114
e 63 126
e 63 142
e 63 147
e 63 152
e 63 166
e 63 171
e 63 182
e 63 198
e 63 213
e 64 65
e 64 72
e 64 80
e 64 82
e 64 122
e 64 125
e 64 129
e 64 131
e 64 151
e 64 153
e 64 164
e 64 179
e 64 221
e 64 233
e 64 235
e 64 242
e 64 245
e 65 70
e 65 73
e 65 89
e 65 102
e 65 103
e 65 106
e 65 133
e 65 161
e 65 173
e 65 183
e 65 184
e 65 205
e 65 246
e 66 67
e 66 69
e 66 75
e 66 91
e 66 94
e 66 104
e 66 107
e 66 115
e 66 124
e 66 148
e 66 160
e 66 175
e 66 181
e 66 186
e 66 197
e 66 211
e 66 212
e 66 232
e 66 248
e 66 249
e 67 68
e 67 78
e 67 93
e 67 124
e 67 126
e 67 128
e 67 134
e 67 144
e 67 153
e 67 159
e 67 178
e 67 181
e 67 199
e 67 207
e 67 246
e 68 76
e 68 83
e 68 96
e 68 110
e 68 114
e 68 135
e 68 156
e 68 165
e 68 169
e 68 180
e 68 213
e 68 228
e 68 229
e 69 74
e 69 76
e 69 82
e 69 94
e 69 100
e 69 108
e 69 120
e 69 125
e 69 130
e 69 142
e 69 150
e 69 158
e 69 159
e 69 162
e 69 163
e 69 166
e 69 172
e 69 179
e 69 180
e 69 182
e 69 195
e 69 197
e 69 203
e 69 208
e 69 221
e 69 229
e 69 241
e 69 242
e 69 243
e 70 71
e 70 77
e 70 79
e 70 84
e 70 88
e 70 106
e 70 111
e 70 131
e 70 133
e 70 137
e 70 146
e 70 151
e 70 152
e 70 172
e 70 184
e 70 199
e 70 200
e 70 212
e 70 213
e 70 216
e 70 220
e 70 221
e 70 233
e 70 236
e 70 240
e 70 247
e 71 79
e 71 81
e 71 95
e 71 124
e 71 134
e 71 143
e 71 163
e 71 167
e 71 168
e 71 169
e 71 170
e 71 173
e 71 181
e 71 210
e 71 227
e 71 237
e 72 73
e 72 86
e 72 122
e 72 136
e 72 142
e 72 144
e 72 149
e 72 203
e 72 208
e 72 227
e 72 250
e 73 94
e 73 102
e 73 115
e 73 121
e 73 132
e 73 134
e 73 137
e 73 139
e 73 142
e 73 155
e 73 172
e 73 193
e 73 196
e 73 199
e 73 211
e 73 214
e 73 220
e 73 240
e 74 87
e 74 98
e 74 114
e 74 122
e 74 130
e 74 132
e 74 145
e 74 149
e 74 153
e 74 171
e 74 193
e 74 203
e 74 219
e 74 229
e 74 232
e 74 240
e 74 241
e 74 243
e 75 81
e 75 98
e 75 99
e 75 123
e 75 133
e 75 134
e 75 148
e 75 150
e 75 152
e 75 153
e 75 159
e 75 165
e 75 167
e 75 172
e 75 186
e 75 188
e 75 208
e 75 219
e 75 226
e 75 228
e 75 230
e 75 232
e 75 240
e 75 243
e 75 246
e 75 248
e 76 89
e 76 91
e 76 95
e 76 100
e 76 113
e 76 122
e 76 126
e 76 131
e 76 143
e 76 154
e 76 161
e 76 162
e 76 167
e 76 169
e 76 184
e 76 211
e 76 242
e 76 244
e 76 247
e 76 248
e 77 85
e 77 119
e 77 167
e 77 175
e 77 180
e 77 183
e 77 197
e 77 198
e 77 201
e 77 230
e 77 234
e 77 235
e 77 241
e 78 108
e 78 116
e 78 125
e 78 130
e 78 148
e 78 159
e 78 185
e 78 192
e 78 202
e 78 227
e 78 229
e 78 245
e 79 81
e 79 82
e 79 93
e 79 97
e 79 101
e 79 104
e 79 107
e 79 116
e 79 126
e 79 134
e 79 148
e 79 157
e 79 164
e 79 174
e 79 178
e 79 181
e 79 184
e 79 193
e 79 194
e 79 197
e 79 204
e 79 231
e 79 238
e 79 249
e 80 83
e 80 91
e 80 96
e 80 117
e 80 120
e 80 121
e 80 123
e 80 140
e 80 152
e 80 153
e 80 163
e 80 174
e 80 178
e 80 179
e 80 186
e 80 189
e 80 215
e 81 90
e 81 93
e 81 108
e 81 119
e 81 126
e 81 129
e 81 171
e 81 173
e 81 177
e 81 179
e 81 184
e 81 191
e 81 238
e 81 241
e 81 245
e 81 249
e 82 148
e 82 151
e 82 158
e 82 167
e 82 170
e 82 180
e 82 187
e 82 211
e 82 218
e 82 226
e 82 232
e 82 236
e 82 250
e 83 94
e 83 100
e 83 102
e 83 129
e 83 131
e 83 146
e 83 151
e 83 160
e 83 167
e 83 176
e 83 208
e 83 209
e 83 213
e 83 216
e 83 222
e 83 225
e 83 240
e 84 105
e 84 110
e 84 116
e 84 121
e 84 129
e 84 131
e 84 139
e 84 142
e 84 145
e 84 149
e 84 150
e 84 188
e 84 191
e 84 206
e 84 240
e 84 246
e 85 89
e 85 90
e 85 94
e 85 103
e 85 117
e 85 139
e 85 141
e 85 142
e 85 145
e 85 159
e 85 161
e 85 172
e 85 177
e 85 188
e 85 195
e 85 204
e 85 211
e 85 217
e 85 223
e 85 225
e 85 227
e 85 246
e 86 89
e 86 92
e 86 96
e 86 115
e 86 120
e 86 155
e 86 160
e 86 178
e 86 183
e 86 186
e 86 187
e 86 196
e 86 200
e 86 211
e 86 219
e 86 235
e 86 237
e 87 123
e 87 126
e 87 136
e 87 141
e 87 151
e 87 169
e 87 172
e 87 174
e 87 175
e 87 194
e 87 195
e 87 204
e 87 206
e 87 243
e 87 245
e 88 90
e 88 96
e 88 121
e 88 130
e 88 140
e 88 143
e 88 147
e 88 149
e 88 157
e 88 174
e 88 190
e 88 203
e 88 237
e 88 239
e 88 241
e 88 250
e 89 95
e 89 96
e 89 130
e 89 134
e 89 149
e 89 154
e 89 168
e 89 171
e 89 172
e 89 174
e 89 177
e 89 200
e 89 211
e 89 213
e 89 224
e 89 238
e 89 244
e 90 98
e 90 100
e 90 104
e 90 111
e 90 141
e 90 169
e 90 198
e 90 209
e 90 218
e 90 231
e 90 234
e 90 241
e 90 250
e 91 112
e 91 114
e 91 122
e 91 126
e 91 129
e 91 130
e 91 137
e 91 139
e 91 149
e 91 161
e 91 167
e 91 177
e 91 181
e 91 182
e 91 185
e 91 193
e 91 198
e 91 212
e 91 230
e 91 250
e 92 97
e 92 104
e 92 106
e 92 107
e 92 113
e 92 131
e 92 160
e 92 162
e 92 172
e 92 181
e 92 213
e 92 226
e 92 236
e 92 250
e 93 129
e 93 158
e 93 159
e 93 167
e 93 178
e 93 183
e 93 193
e 93 194
e 93 201
e 93 207
e 93 214
e 93 225
e 93 229
e 93 231
e 93 242
e 93 250
e 94 122
e 94 158
e 94 161
e 94 164
e 94 167
e 94 174
e 94 185
e 94 187
e 94 200
e 94 201
e 94 211
e 94 220
e 94 224
e 94 235
e 94 245
e 95 115
e 95 125
e 95 143
e 95 153
e 95 158
e 95 180
e 95 186
e 95 189
e 95 194
e 95 240
e 96 124
e 96 137
e 96 144
e 96 145
e 96 151
e 96 158
e 96 160
e 96 161
e 96 203
e 96 214
e 96 220
e 96 232
e 96 238
e 97 106
e 97 107
e 97 125
e 97 132
e 97 145
e 97 147
e 97 153
e 97 156
e 97 175
e 97 190
e 97 193
e 97 196
e 97 207
e 97 209
e 97 220
e 97 222
e 97 229
e 98 118
e 98 129
e 98 144
e 98 161
e 98 162
e 98 165
e 98 173
e 98 184
e 98 201
e 98 220
e 98 225
e 99 114
e 99 141
e 99 145
e 99 149
e 99 154
e 99 155
e 99 161
e 99 166
e 99 199
e 99 200
e 99 212
e 99 213
e 99 234
e 99 237
e 99 238
e 99 240
e 99 244
e 99 246
e 100 113
e 100 117
e 100 126
e 100 151
e 100 159
e 100 161
e 100 166
e 100 171
e 100 179
e 100 194
e 100 216
e 100 221
e 100 223
e 100 225
e 100 238
e 100 245
e 100 246
e 100 247
e 101 114
e 101 116
e 101 138
e 101 166
e 101 183
e 101 187
e 101 206
e 101 215
e 101 222
e 101 225
e 101 236
e 102 104
e 102 110
e 102 126
e 102 142
e 102 143
e 102 149
e 102 174
e 102 180
e 102 194
e 102 196
e 102 211
e 102 212
e 102 231
e 102 236
e 102 237
e 102 242
e 102 246
e 102 247
e 103 109
e 103 119
e 103 124
e 103 128
e 103 146
e 103 147
e 103 161
e 103 162
e 103 170
e 103 188
e 103 200
e 103 232
e 103 233
e 103 239
e 103 246
e 104 113
e 104 116
e 104 124
e 104 130
e 104 131
e 104 139
e 104 159
e 104 164
e 104 170
e 104 179
e 104 180
e 104 188
e 104 208
e 104 209
e 104 211
e 104 218
e 104 220
e 104 230
e 104 231
e 104 243
e 105 111
e 105 120
e 105 124
e 105 128
e 105 131
e 105 136
e 105 142
e 105 143
e 105 150
e 105 152
e 105 162
e 105 181
e 105 195
e 105 196
e 105 218
e 105 221
e 105 231
e 105 234
e 106 108
e 106 110
e 106 122
e 106 126
e 106 132
e 106 144
e 106 171
e 106 188
e 106 200
e 106 204
e 106 206
e 106 238
e 106 241
e 106 247
e 106 249
e 107 115
e 107 125
e 107 151
e 107 155
e 107 172
e 107 174
e 107 178
e 107 191
e 107 194
e 107 204
e 107 230
e 107 243
e 107 245
e 108 119
e 108 141
e 108 145
e 108 146
e 108 151
e 108 153
e 108 160
e 108 168
e 108 223
e 108 238
e 109 111
e 109 117
e 109 148
e 109 151
e 109 164
e 109 177
e 109 183
e 109 193
e 109 196
e 109 201
e 109 202
e 109 211
e 109 219
e 109 239
e 109 242
e 110 120
e 110 124
e 110 127
e 110 161
e 110 164
e 110 172
e 110 193
e 110 202
e 110 205
e 110 210
e 110 232
e 110 250
e 111 125
e 111 126
e 111 150
e 111 158
e 111 160
e 111 184
e 111 214
e 111 216
e 111 222
e 111 230
e 111 242
e 111 250
e 112 122
e 112 141
e 112 147
e 112 150
e 112 151
e 112 161
e 112 200
e 112 208
e 112 221
e 112 223
e 112 231
e 112 234
e 112 246
e 113 125
e 113 127
e 113 135
e 113 137
e 113 141
e 113 151
e 113 152
e 113 166
e 113 175
e 113 178
e 113 189
e 113 203
e 113 208
e 113 209
e 113 212
e 113 218
e 114 123
e 114 141
e 114 157
e 114 164
e 114 168
e 114 184
e 114 194
e 114 195
e 114 197
e 114 205
e 114 243
e 115 118
e 115 124
e 115 128
e 115 129
e 115 141
e 115 148
e 115 166
e 115 168
e 115 197
e 115 201
e 115 224
e 115 229
e 115 242
e 115 246
e 116 138
e 116 144
e 116 159
e 116 160
e 116 161
e 116 163
e 116 166
e 116 168
e 116 173
e 116 178
e 116 183
e 116 205
e 116 210
e 117 129
e 117 146
e 117 156
e 117 158
e 117 171
e 117 190
e 117 205
e 117 212
e 117 235
e 118 121
e 118 125
e 118 138
e 118 141
e 118 142
e 118 148
e 118 153
e 118 167
e 118 171
e 118 175
e 118 199
e 118 210
e 118 218
e 118 240
e 118 242
e 118 244
e 119 151
e 119 157
e 119 159
e 119 196
e 119 204
e 119 205
e 119 212
e 119 216
e 119 225
e 119 238
e 119 248
e 120 123
e 120 125
e 120 126
e 120 167
e 120 169
e 120 175
e 120 206
e 120 219
e 120 225
e 120 232
e 120 234
e 120 238
e 121 122
e 121 123
e 121 135
e 121 150
e 121 159
e 121 161
e 121 176
e 121 185
e 121 191
e 121 192
e 121 204
e 121 210
e 121 230
e 121 233
e 121 245
e 122 132
e 122 137
e 122 143
e 122 151
e 122 158
e 122 162
e 122 165
e 122 177
e 122 199
e 122 229
e 123 124
e 123 132
e 123 133
e 123 159
e 123 160
e 123 163
e 123 167
e 123 173
e 123 176
e 123 181
e 123 213
e 123 216
e 123 218
e 123 221
e 123 229
e 123 232
e 123 241
e 124 133
e 124 136
e 124 142
e 124 147
e 124 150
e 124 168
e 124 177
e 124 191
e 124 198
e 124 206
e 124 211
e 124 222
e 124 231
e 124 232
e 124 235
e 124 249
e 125 139
e 125 151
e 125 153
e 125 159
e 125 163
e 125 182
e 125 195
e 125 196
e 125 212
e 125 214
e 125 218
e 125 227
e 125 244
e 126 127
e 126 131
e 126 132
e 126 140
e 126 148
e 126 151
e 126 154
e 126 158
e 126 160
e 126 165
e 126 167
e 126 173
e 126 182
e 126 213
e 126 222
e 126 223
e 126 226
e 127 128
e 127 132
e 127 133
e 127 148
e 127 152
e 127 156
e 127 164
e 127 167
e 127 178
e 127 179
e 127 188
e 127 192
e 127 207
e 127 217
e 127 239
e 127 242
e 127 250
e 128 137
e 128 146
e 128 150
e 128 151
e 128 160
e 128 183
e 128 189
e 128 195
e 128 200
e 128 214
e 128 215
e 128 219
e 128 220
e 128 224
e 128 230
e 128 238
e 128 242
e 128 246
e 129 131
e 129 132
e 129 148
e 129 152
e 129 153
e 129 162
e 129 178
e 129 200
e 129 202
e 129 204
e 129 215
e 129 218
e 129 239
e 129 243
e 129 249
e 130 136
e 130 148
e 130 150
e 130 154
e 130 156
e 130 162
e 130 166
e 130 185
e 130 192
e 130 194
e 130 197
e 130 215
e 130 225
e 130 237
e 130 245
e 130 250
e 131 137
e 131 144
e 131 150
e 131 174
e 131 181
e 131 188
e 131 208
e 131 226
e 131 229
e 131 235
e 131 243
e 131 244
e 131 245
e 132 133
e 132 135
e 132 136
e 132 137
e 132 156
e 132 173
e 132 190
e 132 191
e 132 192
e 132 194
e 132 215
e 132 219
e 132 223
e 132 225
e 133 137
e 133 141
e 133 148
e 133 150
e 133 152
e 133 176
e 133 215
e 133 248
e 134 135
e 134 140
e 134 160
e 134 179
e 134 180
e 134 195
e 134 206
e 134 212
e 134 222
e 134 232
e 134 241
e 135 156
e 135 192
e 135 197
e 135 210
e 135 219
e 135 232
e 135 233
e 135 241
e 135 243
e 135 244
e 135 247
e 136 142
e 136 146
e 136 152
e 136 183
e 136 198
e 136 202
e 136 209
e 136 215
e 136 225
e 136 241
e 137 142
e 137 153
e 137 172
e 137 174
e 137 177
e 137 189
e 137 197
e 137 198
e 137 211
e 137 213
e 137 223
e 137 226
e 137 233
e 137 245
e 138 154
e 138 158
e 138 170
e 138 173
e 138 180
e 138 210
e 138 219
e 138 220
e 138 226
e 138 246
e 138 249
e 139 144
e 139 145
e 139 147
e 139 163
e 139 172
e 139 177
e 139 196
e 139 215
e 139 235
e 140 141
e 140 143
e 140 144
e 140 152
e 140 156
e 140 160
e 140 165
e 140 177
e 140 183
e 140 190
e 140 197
e 140 199
e 140 210
e 140 215
e 140 217
e 140 220
e 140 223
e 140 235
e 140 241
e 140 244
e 141 161
e 141 162
e 141 173
e 141 194
e 141 201
e 141 206
e 141 227
e 141 231
e 142 148
e 142 150
e 142 159
e 142 172
e 142 177
e 142 187
e 142 194
e 142 205
e 142 208
e 142 221
e 142 233
e 142 243
e 143 144
e 143 147
e 143 157
e 143 179
e 143 189
e 143 202
e 143 216
e 143 224
e 143 250
e 144 152
e 144 160
e 144 170
e 144 172
e 144 183
e 144 199
e 144 213
e 144 230
e 144 244
e 144 246
e 145 146
e 145 151
e 145 155
e 145 165
e 145 188
e 145 191
e 145 193
e 145 202
e 145 221
e 145 224
e 145 228
e 145 238
e 146 148
e 146 150
e 146 168
e 146 200
e 146 223
e 146 224
e 146 234
e 146 245
e 147 158
e 147 189
e 147 192
e 147 197
e 147 204
e 147 229
e 147 234
e 148 156
e 148 178
e 148 201
e 148 215
e 148 221
e 148 225
e 148 226
e 148 235
e 148 236
e 149 155
e 149 163
e 149 169
e 149 178
e 149 213
e 149 217
e 149 222
e 149 239
e 149 241
e 149 245
e 150 159
e 150 186
e 150 189
e 150 194
e 150 218
e 150 227
e 150 238
e 150 246
e 151 166
e 151 202
e 151 227
e 151 231
e 152 158
e 152 172
e 152 194
e 152 205
e 152 210
e 152 213
e 152 215
e 152 216
e 152 244
e 153 171
e 153 201
e 153 220
e 153 226
e 153 232
e 153 236
e 153 240
e 154 166
e 154 178
e 154 187
e 154 191
e 154 230
e 154 231
e 154 241
e 155 157
e 155 163
e 155 180
e 155 181
e 155 190
e 155 219
e 155 244
e 156 172
e 156 184
e 156 195
e 156 210
e 156 213
e 156 214
e 156 220
e 156 228
e 156 231
e 156 236
e 156 237
e 156 245
e 156 250
e 157 172
e 157 186
e 157 194
e 157 210
e 157 214
e 157 217
e 157 218
e 157 221
e 157 223
e 157 233
e 158 161
e 158 162
e 158 163
e 158 165
e 158 193
e 158 201
e 158 204
e 158 205
e 158 230
e 158 231
e 158 232
e 158 245
e 158 247
e 159 196
e 159 207
e 159 217
e 159 228
e 159 239
e 159 244
e 160 174
e 160 186
e 160 187
e 160 188
e 160 190
e 160 194
e 160 204
e 160 215
e 160 221
e 160 224
e 160 226
e 160 228
e 160 231
e 160 246
e 160 250
e 161 167
e 161 171
e 161 200
e 161 211
e 161 227
e 161 236
e 161 240
e 161 249
e 162 170
e 162 182
e 162 183
e 162 228
e 163 173
e 163 189
e 163 201
e 163 203
e 163 221
e 163 231
e 164 175
e 164 180
e 164 200
e 164 215
e 164 227
e 164 249
e 165 166
e 165 168
e 165 182
e 165 183
e 165 188
e 165 209
e 165 231
e 165 235
e 165 238
e 165 241
e 165 248
e 165 249
e 166 167
e 166 174
e 166 175
e 166 205
e 166 235
e 166 241
e 166 249
e 167 173
e 167 178
e 167 179
e 167 188
e 167 201
e 167 203
e 167 212
e 167 230
e 167 238
e 167 246
e 167 248
e 167 250
e 168 178
e 168 183
e 168 190
e 168 193
e 168 196
e 168 207
e 168 217
e 169 184
e 169 201
e 169 240
e 170 171
e 170 236
e 170 242
e 170 243
e 170 249
e 170 250
e 171 188
e 171 207
e 171 213
e 171 233
e 171 237
e 171 243
e 171 247
e 171 249
e 172 177
e 172 190
e 172 196
e 172 204
e 172 205
e 172 216
e 172 220
e 172 226
e 172 250
e 173 185
e 173 194
e 173 197
e 173 213
e 173 221
e 173 227
e 173 230
e 173 235
e 173 239
e 173 240
e 173 245
e 174 183
e 174 199
e 174 205
e 174 219
e 174 242
e 175 177
e 175 203
e 175 210
e 175 213
e 175 229
e 175 232
e 175 242
e 175 249
e 176 180
e 176 192
e 176 200
e 176 215
e 176 229
e 176 236
e 176 238
e 176 243
e 176 248
e 176 249
e 177 178
e 177 180
e 177 184
e 177 209
e 177 211
e 177 218
e 177 227
e 177 228
e 178 197
e 178 213
e 178 215
e 178 217
e 178 240
e 178 245
e 178 249
e 179 185
e 179 199
e 179 218
e 179 219
e 179 224
e 179 227
e 179 232
e 179 237
e 179 247
e 180 190
e 180 192
e 180 200
e 180 210
e 180 211
e 180 226
e 181 197
e 181 204
e 181 228
e 181 239
e 181 244
e 182 190
e 182 191
e 182 195
e 182 205
e 182 240
e 183 189
e 183 190
e 183 204
e 183 211
e 183 249
e 184 206
e 184 213
e 184 250
e 185 198
e 185 217
e 185 219
e 185 221
e 185 224
e 186 205
e 186 211
e 186 214
e 186 215
e 187 188
e 187 194
e 187 195
e 187 212
e 187 241
e 187 245
e 188 209
e 188 226
e 188 232
e 188 237
e 188 240
e 188 249
e 189 196
e 189 204
e 189 208
e 189 211
e 189 216
e 189 222
e 189 226
e 189 234
e 189 242
e 190 194
e 190 197
e 190 208
e 190 211
e 190 220
e 191 231
e 191 249
e 192 198
e 192 204
e 192 211
e 192 216
e 192 226
e 193 200
e 193 202
e 193 214
e 193 231
e 193 248
e 193 249
e 193 250
e 194 209
e 194 215
e 194 222
e 194 224
e 194 229
e 194 234
e 194 235
e 194 236
e 194 246
e 195 209
e 195 214
e 195 232
e 195 249
e 196 206
e 196 211
e 196 222
e 196 224
e 196 227
e 196 232
e 196 233
e 196 234
e 196 249
e 197 206
e 197 211
e 197 212
e 197 214
e 197 215
e 197 231
e 197 236
e 197 250
e 198 203
e 198 212
e 198 213
e 198 223
e 198 225
e 198 229
e 198 233
e 198 234
e 199 211
e 199 218
e 199 219
e 199 243
e 199 245
e 200 206
e 200 227
e 200 238
e 200 249
e 201 211
e 201 225
e 201 229
e 201 230
e 201 231
e 201 248
e 202 207
e 202 211
e 202 213
e 202 215
e 202 232
e 202 243
e 203 209
e 203 212
e 203 214
e 203 237
e 203 238
e 204 207
e 204 210
e 204 216
e 204 222
e 205 207
e 205 209
e 205 212
e 205 216
e 205 221
e 205 235
e 206 211
e 206 217
e 206 226
e 206 228
e 206 229
e 206 231
e 206 240
e 207 209
e 207 216
e 207 222
e 207 223
e 207 225
e 207 226
e 207 235
e 208 222
e 208 233
e 208 236
e 208 243
e 209 214
e 209 223
e 209 234
e 209 235
e 209 237
e 209 250
e 210 212
e 210 214
e 210 217
e 210 218
e 210 222
e 210 233
e 210 235
e 210 243
e 210 249
e 211 217
e 211 220
e 211 231
e 211 236
e 211 241
e 212 216
e 212 228
e 212 242
e 212 244
e 212 247
e 212 248
e 213 246
e 213 250
e 214 235
e 214 248
e 215 249
e 216 222
e 216 225
e 216 239
e 217 222
e 217 230
e 217 235
e 217 238
e 217 241
e 217 243
e 218 222
e 218 224
e 218 232
e 218 246
e 218 250
e 219 238
e 219 241
e 220 221
e 220 222
e 220 226
e 220 241
e 220 243
e 220 248
e 220 250
e 221 222
e 221 233
e 221 234
e 222 225
e 222 236
e 222 245
e 222 247
e 223 224
e 223 239
e 223 241
e 224 226
e 224 240
e 225 232
e 225 234
e 225 241
e 225 242
e 225 248
e 226 245
e 226 246
e 227 229
e 227 230
e 228 242
e 228 244
e 229 237
e 230 234
e 230 242
e 231 236
e 231 245
e 233 240
e 233 244
e 235 245
e 235 250
e 237 249
e 238 247
e 240 241
e 240 245
e 241 242
e 241 246
e 245 250
e 247 248
